sat
(model 
  (define-fun x () (_ BitVec 64)
    #x000000000000a87f)
  (define-fun f () (_ BitVec 64)
    #x0000000000004969)
  (define-fun e () (_ BitVec 64)
    #x0000000000000433)
  (define-fun d () (_ BitVec 64)
    #x000000000000b662)
  (define-fun c () (_ BitVec 64)
    #x0000000000004be0)
  (define-fun b () (_ BitVec 64)
    #x000000000000fa6c)
  (define-fun a () (_ BitVec 64)
    #x00000000000014f6)
  (define-fun g () (_ BitVec 64)
    #x0000000000000000)
  (define-fun h () (_ BitVec 64)
    #x0000000000000000)
  (define-fun ascii_table () String
    "\x00\x01\x02\x03\x04\x05\x06\x07\x08\x09\n\v\f\r\x0E\x0F\x10\x11\x12\x13\x14\x15\x16\x17\x18\x19\x1A\x1B\x1C\x1D\x1E\x1F !""#$%&'()*+,-./0123456789:;<=>?@ABCDEFGHIJKLMNOPQRSTUVWXYZ[\\]^_`abcdefghijklmnopqrstuvwxyz{|}~\x80\x81\x82\x83\x84\x85\x86\x87\x88\x89\x8a\x8b\x8c\x8d\x8e\x8f\x90\x91\x92\x93\x94\x95\x96\x97\x98\x99\x9a\x9b\x9c\x9d\x9e\x9f\xa0\xa1\xa2\xa3\xa4\xa5\xa6\xa7\xa8\xa9\xaa\xab\xac\xad\xae\xaf\xb0\xb1\xb2\xb3\xb4\xb5\xb6\xb7\xb8\xb9\xba\xbb\xbc\xbd\xbe\xbf\xc0\xc1\xc2\xc3\xc4\xc5\xc6\xc7\xc8\xc9\xca\xcb\xcc\xcd\xce\xcf\xd0\xd1\xd2\xd3\xd4\xd5\xd6\xd7\xd8\xd9\xda\xdb\xdc\xdd\xde\xdf\xe0\xe1\xe2\xe3\xe4\xe5\xe6\xe7\xe8\xe9\xea\xeb\xec\xed\xee\xef\xf0\xf1\xf2\xf3\xf4\xf5\xf6\xf7\xf8\xf9\xfa\xfb\xfc\xfd\xfe\xff")
  (define-fun suffixes () String
    "zodnecbudwessevpersutletfulpensytdurwepserwylsunrypsyxdyrnuphebpeglupdepdysputlughecryttyvsydnexlunmeplutseppesdelsulpedtemledtulmetwenbynhexfebpyldulhetmevruttylwydtepbesdexsefwycburderneppurrysrebdennutsubpetrulsynregtydsupsemwynrecmegnetsecmulnymtevwebsummutnyxrextebfushepbenmuswyxsymselrucdecwexsyrwetdylmynmesdetbetbeltuxtugmyrpelsyptermebsetdutdegtexsurfeltudnuxruxrenwytnubmedlytdusnebrumtynseglyxpunresredfunrevrefmectedrusbexlebduxrynnumpyxrygryxfeptyrtustyclegnemfermertenlusnussyltecmexpubrymtucfyllepdebbermughuttunbylsudpemdevlurdefbusbeprunmelpexdytbyttyplevmylwedducfurfexnulluclennerlexrupnedlecrydlydfenwelnydhusrelrudneshesfetdesretdunlernyrsebhulrylludremlysfynwerrycsugnysnyllyndyndemluxfedsedbecmunlyrtesmudnytbyrsenwegfyrmurtelreptegpecnelnevfes")
  (define-fun prefixes () String
    "dozmarbinwansamlitsighidfidlissogdirwacsabwissibrigsoldopmodfoglidhopdardorlorhodfolrintogsilmirholpaslacrovlivdalsatlibtabhanticpidtorbolfosdotlosdilforpilramtirwintadbicdifrocwidbisdasmidloprilnardapmolsanlocnovsitnidtipsicropwitnatpanminritpodmottamtolsavposnapnopsomfinfonbanmorworsipronnorbotwicsocwatdolmagpicdavbidbaltimtasmalligsivtagpadsaldivdactansidfabtarmonranniswolmispallasdismaprabtobrollatlonnodnavfignomnibpagsopralbilhaddocridmocpacravripfaltodtiltinhapmicfanpattaclabmogsimsonpinlomrictapfirhasbosbatpochactidhavsaplindibhosdabbitbarracparloddosbortochilmactomdigfilfasmithobharmighinradmashalraglagfadtopmophabnilnosmilfopfamdatnoldinhatnacrisfotribhocnimlarfitwalrapsarnalmoslandondanladdovrivbacpollaptalpitnambonrostonfodponsovnocsorlavmatmipfip")
  (define-fun hash_works ((x!0 (_ BitVec 16))) Bool
    (let ((a!1 (str.substr "dozmarbinwansamlitsighidfidlissogdirwacsabwissibrigsoldopmodfoglidhopdardorlorhodfolrintogsilmirholpaslacrovlivdalsatlibtabhanticpidtorbolfosdotlosdilforpilramtirwintadbicdifrocwidbisdasmidloprilnardapmolsanlocnovsitnidtipsicropwitnatpanminritpodmottamtolsavposnapnopsomfinfonbanmorworsipronnorbotwicsocwatdolmagpicdavbidbaltimtasmalligsivtagpadsaldivdactansidfabtarmonranniswolmispallasdismaprabtobrollatlonnodnavfignomnibpagsopralbilhaddocridmocpacravripfaltodtiltinhapmicfanpattaclabmogsimsonpinlomrictapfirhasbosbatpochactidhavsaplindibhosdabbitbarracparloddosbortochilmactomdigfilfasmithobharmighinradmashalraglagfadtopmophabnilnosmilfopfamdatnoldinhatnacrisfotribhocnimlarfitwalrapsarnalmoslandondanladdovrivbacpollaptalpitnambonrostonfodponsovnocsorlavmatmipfip"
                           (* 3 (bv2int ((_ extract 15 8) x!0)))
                           3))
          (a!2 (str.substr "zodnecbudwessevpersutletfulpensytdurwepserwylsunrypsyxdyrnuphebpeglupdepdysputlughecryttyvsydnexlunmeplutseppesdelsulpedtemledtulmetwenbynhexfebpyldulhetmevruttylwydtepbesdexsefwycburderneppurrysrebdennutsubpetrulsynregtydsupsemwynrecmegnetsecmulnymtevwebsummutnyxrextebfushepbenmuswyxsymselrucdecwexsyrwetdylmynmesdetbetbeltuxtugmyrpelsyptermebsetdutdegtexsurfeltudnuxruxrenwytnubmedlytdusnebrumtynseglyxpunresredfunrevrefmectedrusbexlebduxrynnumpyxrygryxfeptyrtustyclegnemfermertenlusnussyltecmexpubrymtucfyllepdebbermughuttunbylsudpemdevlurdefbusbeprunmelpexdytbyttyplevmylwedducfurfexnulluclennerlexrupnedlecrydlydfenwelnydhusrelrudneshesfetdesretdunlernyrsebhulrylludremlysfynwerrycsugnysnyllyndyndemluxfedsedbecmunlyrtesmudnytbyrsenwegfyrmurtelreptegpecnelnevfes"
                           (* 3 (bv2int ((_ extract 7 0) x!0)))
                           3)))
    (let ((a!3 (concat #x00 ((_ extract 7 0) (str_as_u64 (str.++ a!1 a!2)))))
          (a!4 (concat #x00 ((_ extract 15 8) (str_as_u64 (str.++ a!1 a!2)))))
          (a!5 (concat #x00 ((_ extract 23 16) (str_as_u64 (str.++ a!1 a!2)))))
          (a!6 (concat #x00 ((_ extract 31 24) (str_as_u64 (str.++ a!1 a!2)))))
          (a!7 (concat #x00 ((_ extract 39 32) (str_as_u64 (str.++ a!1 a!2)))))
          (a!8 (concat #x00 ((_ extract 47 40) (str_as_u64 (str.++ a!1 a!2))))))
      (= (bvadd (bvmul #x14f6 a!3)
                (bvmul #xfa6c a!4)
                (bvmul #x4be0 a!5)
                (bvmul #xb662 a!6)
                (bvmul #x0433 a!7)
                (bvmul #x4969 a!8))
         (bvadd #x5781 x!0)))))
  (define-fun hash ((x!0 (_ BitVec 64))) (_ BitVec 16)
    (bvadd #xa87f
           (bvmul #x14f6 (concat #x00 ((_ extract 7 0) x!0)))
           (bvmul #xfa6c (concat #x00 ((_ extract 15 8) x!0)))
           (bvmul #x4be0 (concat #x00 ((_ extract 23 16) x!0)))
           (bvmul #xb662 (concat #x00 ((_ extract 31 24) x!0)))
           (bvmul #x0433 (concat #x00 ((_ extract 39 32) x!0)))
           (bvmul #x4969 (concat #x00 ((_ extract 47 40) x!0)))))
  (define-fun star ((x!0 (_ BitVec 16))) String
    (let ((a!1 (str.substr "dozmarbinwansamlitsighidfidlissogdirwacsabwissibrigsoldopmodfoglidhopdardorlorhodfolrintogsilmirholpaslacrovlivdalsatlibtabhanticpidtorbolfosdotlosdilforpilramtirwintadbicdifrocwidbisdasmidloprilnardapmolsanlocnovsitnidtipsicropwitnatpanminritpodmottamtolsavposnapnopsomfinfonbanmorworsipronnorbotwicsocwatdolmagpicdavbidbaltimtasmalligsivtagpadsaldivdactansidfabtarmonranniswolmispallasdismaprabtobrollatlonnodnavfignomnibpagsopralbilhaddocridmocpacravripfaltodtiltinhapmicfanpattaclabmogsimsonpinlomrictapfirhasbosbatpochactidhavsaplindibhosdabbitbarracparloddosbortochilmactomdigfilfasmithobharmighinradmashalraglagfadtopmophabnilnosmilfopfamdatnoldinhatnacrisfotribhocnimlarfitwalrapsarnalmoslandondanladdovrivbacpollaptalpitnambonrostonfodponsovnocsorlavmatmipfip"
                           (* 3 (bv2int ((_ extract 15 8) x!0)))
                           3))
          (a!2 (str.substr "zodnecbudwessevpersutletfulpensytdurwepserwylsunrypsyxdyrnuphebpeglupdepdysputlughecryttyvsydnexlunmeplutseppesdelsulpedtemledtulmetwenbynhexfebpyldulhetmevruttylwydtepbesdexsefwycburderneppurrysrebdennutsubpetrulsynregtydsupsemwynrecmegnetsecmulnymtevwebsummutnyxrextebfushepbenmuswyxsymselrucdecwexsyrwetdylmynmesdetbetbeltuxtugmyrpelsyptermebsetdutdegtexsurfeltudnuxruxrenwytnubmedlytdusnebrumtynseglyxpunresredfunrevrefmectedrusbexlebduxrynnumpyxrygryxfeptyrtustyclegnemfermertenlusnussyltecmexpubrymtucfyllepdebbermughuttunbylsudpemdevlurdefbusbeprunmelpexdytbyttyplevmylwedducfurfexnulluclennerlexrupnedlecrydlydfenwelnydhusrelrudneshesfetdesretdunlernyrsebhulrylludremlysfynwerrycsugnysnyllyndyndemluxfedsedbecmunlyrtesmudnytbyrsenwegfyrmurtelreptegpecnelnevfes"
                           (* 3 (bv2int ((_ extract 7 0) x!0)))
                           3)))
      (str.++ a!1 a!2)))
  (define-fun syllable ((x!0 String) (x!1 Int)) String
    (str.substr x!1 (* 3 x!0) 3))
)
real 4.39
user 4.28
sys 0.09
